\ Generated by MPModelProtoExporter
\   Name             : 
\   Format           : Free
\   Constraints      : 2
\   Variables        : 2
\     Binary         : 0
\     Integer        : 2
\     Continuous     : 0
Maximize
 Obj: +100 x_A +80 x_B 
Subject to
 auto_c_000000000: +1.5 x_A +1 x_B  <= 8
 auto_c_000000001: +2 x_A +1.5 x_B  <= 10
Bounds
 0 <= x_A <= inf
 0 <= x_B <= inf
Generals
 x_A
 x_B
End
